NAME:  test1
TYPE: AGTSP
COMMENT: gtsp tours
DIMENSION: 85 
GTSP_SETS: 13
EDGE_WEIGHT_TYPE: EXPLICIT
EDGE_WEIGHT_FORMAT: FULL_MATRIX 
EDGE_WEIGHT_SECTION
999999	0	999999	999999	999999	999999	999999	28494	28494	28494	28494	28486	999999	999999	28481	28481	28481	28473	999999	999999	999999	28496	28496	28496	28496	28488	999999	999999	28507	28507	28507	28507	28507	28499	999999	28502	28502	28502
999999	999999	0	999999	999999	999999	999999	28494	28494	28494	28494	28494	28486	999999	28481	28481	28481	28481	28473	999999	999999	28496	28496	28496	28496	28496	28488	999999	28507	28507	28507	28507	28507	28507	28499	28502	28502	28502
999999	999999	999999	0	999999	999999	999999	28494	28494	28494	28494	28494	28494	28486	28481	28481	28481	28481	28481	28473	999999	28496	28496	28496	28496	28496	28496	28488	28507	28507	28507	28507	999999	999999	999999	28502	28502	28502
999999	999999	999999	999999	0	999999	999999	28494	28494	28494	28494	28494	999999	999999	28481	28481	28481	28481	28481	28481	28473	28496	28496	28496	28496	28496	999999	999999	28507	28507	28507	28507	28507	999999	999999	28502	28502	28502
999999	999999	999999	999999	999999	0	999999	28494	28494	28494	28494	28494	28494	999999	28481	28481	28481	28481	28481	28481	999999	28496	28496	28496	28496	28496	28496	999999	28507	28507	28507	28507	28507	28507	999999	28502	28502	28502
999999	999999	999999	999999	999999	999999	0	28494	28494	28494	28494	28494	28494	28494	28481	28481	28481	28481	28481	28481	28481	28496	28496	28496	28496	28496	28496	28496	28507	28507	28507	28507	28507	28507	28507	28502	28502	28502
0	999999	999999	999999	999999	999999	999999	28494	28494	28494	28486	999999	999999	999999	28481	28481	28473	999999	999999	999999	999999	28496	28496	28496	28488	999999	999999	999999	28507	28507	28507	28507	28499	999999	999999	28502	28502	28502
28494	28494	28494	28494	28486	999999	999999	999999	0	999999	999999	999999	999999	999999	28511	28511	28511	28511	28511	28503	999999	28469	28469	28461	999999	999999	999999	999999	28511	28511	28511	28511	28511	28503	999999	28487	28487	28487
28494	28494	28494	28494	28494	28486	999999	999999	999999	0	999999	999999	999999	999999	28511	28511	28511	28511	28511	28511	28503	28469	28469	28469	28461	999999	999999	999999	28511	28511	28511	28511	28511	28511	28503	28487	28487	28487
28494	28494	28494	28494	28494	28494	28486	999999	999999	999999	0	999999	999999	999999	28511	28511	28511	28511	999999	999999	999999	28469	28469	28469	28469	28461	999999	999999	28511	28511	28511	28511	999999	999999	999999	28487	28487	28487
28494	28494	28494	28494	28494	999999	999999	999999	999999	999999	999999	0	999999	999999	28511	28511	28511	28511	28511	999999	999999	28469	28469	28469	28469	28469	28461	999999	28511	28511	28511	28511	28511	999999	999999	28487	28487	28487
28494	28494	28494	28494	28494	28494	999999	999999	999999	999999	999999	999999	0	999999	28511	28511	28511	28511	28511	28511	999999	28469	28469	28469	28469	28469	28469	28461	28511	28511	28511	28511	28511	28511	999999	28487	28487	28487
28494	28494	28494	28494	28494	28494	28494	999999	999999	999999	999999	999999	999999	0	28511	28511	28511	28511	28511	28511	28511	28469	28469	28469	28469	28469	28469	28469	28511	28511	28511	28511	28511	28511	28511	28487	28487	28487
28494	28494	28494	28486	999999	999999	999999	0	999999	999999	999999	999999	999999	999999	28511	28511	28511	28511	28503	999999	999999	28469	28461	999999	999999	999999	999999	999999	28511	28511	28511	28511	28503	999999	999999	28487	28487	28479
28481	28481	28481	28473	999999	999999	999999	28511	28511	28511	28511	28511	28503	999999	999999	0	999999	999999	999999	999999	999999	28514	28514	28514	28514	28514	28514	28506	28506	28506	28506	28506	28506	28498	999999	28513	28513	28513
28481	28481	28481	28481	28473	999999	999999	28511	28511	28511	28511	28511	28511	28503	999999	999999	0	999999	999999	999999	999999	28514	28514	28514	999999	999999	999999	999999	28506	28506	28506	28506	28506	28506	28498	28513	28513	28513
28481	28481	28481	28481	28481	28473	999999	28511	28511	28511	28511	999999	999999	999999	999999	999999	999999	0	999999	999999	999999	28514	28514	28514	28514	999999	999999	999999	28506	28506	28506	28506	999999	999999	999999	28513	28513	28513
28481	28481	28481	28481	28481	28481	28473	28511	28511	28511	28511	28511	999999	999999	999999	999999	999999	999999	0	999999	999999	28514	28514	28514	28514	28514	999999	999999	28506	28506	28506	28506	28506	999999	999999	28513	28513	28513
28481	28481	28481	28481	28481	28481	999999	28511	28511	28511	28511	28511	28511	999999	999999	999999	999999	999999	999999	0	999999	28514	28514	28514	28514	28514	28514	999999	28506	28506	28506	28506	28506	28506	999999	28513	28513	28513
28481	28481	28481	28481	28481	28481	28481	28511	28511	28511	28511	28511	28511	28511	999999	999999	999999	999999	999999	999999	0	28514	28514	28514	28514	28514	28514	28514	28506	28506	28506	28506	28506	28506	28506	28513	28513	28513
28481	28481	28473	999999	999999	999999	999999	28511	28511	28511	28511	28503	999999	999999	0	999999	999999	999999	999999	999999	999999	28514	28514	28514	28514	28514	28506	999999	28506	28506	28506	28506	28498	999999	999999	28513	28513	28513
28496	28496	28496	28496	28488	999999	999999	28469	28469	28461	999999	999999	999999	999999	28514	28514	28514	28514	28514	28514	28506	999999	0	999999	999999	999999	999999	999999	28517	28517	28517	28517	28517	28517	28509	28493	28493	28493
28496	28496	28496	28496	28496	28488	999999	28469	28469	28469	28461	999999	999999	999999	28514	28514	28514	999999	999999	999999	999999	999999	999999	0	999999	999999	999999	999999	28517	28517	28517	999999	999999	999999	999999	28493	28493	28493
28496	28496	28496	28496	28496	28496	28488	28469	28469	28469	28469	28461	999999	999999	28514	28514	28514	28514	999999	999999	999999	999999	999999	999999	0	999999	999999	999999	28517	28517	28517	28517	999999	999999	999999	28493	28493	28493
28496	28496	28496	28496	28496	999999	999999	28469	28469	28469	28469	28469	28461	999999	28514	28514	28514	28514	28514	999999	999999	999999	999999	999999	999999	0	999999	999999	28517	28517	28517	28517	28517	999999	999999	28493	28493	28493
28496	28496	28496	28496	28496	28496	999999	28469	28469	28469	28469	28469	28469	28461	28514	28514	28514	28514	28514	28514	999999	999999	999999	999999	999999	999999	0	999999	28517	28517	28517	28517	28517	28517	999999	28493	28493	28493
28496	28496	28496	28496	28496	28496	28496	28469	28469	28469	28469	28469	28469	28469	28514	28514	28514	28514	28514	28514	28514	999999	999999	999999	999999	999999	999999	0	28517	28517	28517	28517	28517	28517	28517	28493	28493	28493
28496	28496	28496	28488	999999	999999	999999	28469	28461	999999	999999	999999	999999	999999	28514	28514	28514	28514	28514	28506	999999	0	999999	999999	999999	999999	999999	999999	28517	28517	28517	28517	28517	28509	999999	28493	28493	28493
28507	28507	28507	28507	28507	28499	999999	28511	28511	28511	28511	28511	28503	999999	28506	28506	28506	28506	28506	28498	999999	28517	28517	28517	28517	28517	28517	28509	999999	0	999999	999999	999999	999999	999999	28492	28492	28492
28507	28507	28507	28507	28507	28507	28499	28511	28511	28511	28511	28511	28511	28503	28506	28506	28506	28506	28506	28506	28498	28517	28517	28517	999999	999999	999999	999999	999999	999999	0	999999	999999	999999	999999	28492	28492	28492
28507	28507	28507	28507	999999	999999	999999	28511	28511	28511	28511	999999	999999	999999	28506	28506	28506	28506	999999	999999	999999	28517	28517	28517	28517	999999	999999	999999	999999	999999	999999	0	999999	999999	999999	28492	28492	28492
28507	28507	28507	28507	28507	999999	999999	28511	28511	28511	28511	28511	999999	999999	28506	28506	28506	28506	28506	999999	999999	28517	28517	28517	28517	28517	999999	999999	999999	999999	999999	999999	0	999999	999999	28492	28492	28492
28507	28507	28507	28507	28507	28507	999999	28511	28511	28511	28511	28511	28511	999999	28506	28506	28506	28506	28506	28506	999999	28517	28517	28517	28517	28517	28517	999999	999999	999999	999999	999999	999999	0	999999	28492	28492	28492
28507	28507	28507	28507	28507	28507	28507	28511	28511	28511	28511	28511	28511	28511	28506	28506	28506	28506	28506	28506	28506	28517	28517	28517	28517	28517	28517	28517	999999	999999	999999	999999	999999	999999	0	28492	28492	28492
28507	28507	28507	28507	28499	999999	999999	28511	28511	28511	28511	28503	999999	999999	28506	28506	28506	28506	28498	999999	999999	28517	28517	28517	28517	28517	28509	999999	0	999999	999999	999999	999999	999999	999999	28492	28492	28492
28502	28502	28502	28502	28502	28494	999999	28487	28487	28487	28479	999999	999999	999999	28513	28513	28513	28513	28513	28513	28505	28493	28493	28493	28493	28485	999999	999999	28492	28492	28492	28492	28484	999999	999999	999999	0	999999
28502	28502	28502	28502	28502	28502	28494	28487	28487	28487	28487	28479	999999	999999	28513	28513	28513	999999	999999	999999	999999	28493	28493	28493	28493	28493	28485	999999	28492	28492	28492	28492	28492	28484	999999	999999	999999	0
28502	28502	28502	28502	999999	999999	999999	28487	28487	28487	28487	28487	28479	999999	28513	28513	28513	28513	999999	999999	999999	28493	28493	28493	28493	28493	28493	28485	28492	28492	28492	28492	28492	28492	28484	999999	999999	999999
GTSP_SET_SECTION:
1 1 2 3 4 5 6 7 -1
2 8 9 10 11 12 13 14 -1
3 15 16 17 18 19 20 21 -1
4 22 23 24 25 26 27 28 -1
5 29 30 31 32 33 34 35 -1
6 36 37 38 39 40 41 42 -1
7 43 44 45 46 47 48 49 -1
8 50 51 52 53 54 55 56 -1
9 57 58 59 60 61 62 63 -1
10 64 65 66 67 68 69 70 -1
11 71 72 73 74 75 76 77 -1
12 78 79 80 81 82 83 84 -1
13 85 -1
EOF